1 2 96
1 3 9
1 4 43
1 5 39
1 6 31
1 7 74
1 8 66
1 9 13
1 10 26
2 3 31
2 4 98
2 5 63
2 6 30
2 7 31
2 8 34
2 9 60
2 10 11
3 4 36
3 5 45
3 6 44
3 7 97
3 8 70
3 9 3
3 10 46
4 5 42
4 6 38
4 7 29
4 8 90
4 9 87
4 10 88
5 6 96
5 7 4
5 8 13
5 9 57
5 10 50
6 7 43
6 8 50
6 9 47
6 10 50
7 8 1
7 9 41
7 10 26
8 9 99
8 10 93
9 10 74
